CLT07
Position Depot: Center
Horizon for Depot: Large
Position of customers: Cluster
Distribution of the demand: Large
Width of time windows: Tight
Distribution of the service: Large

VEHICLE 
NUMBER 	 CAPACITY 
 10 	 	 240 
 
CUSTOMER
CUST NO. 	 XCOORD.  	 YCOORD. 	 DEMAND 	 READY TIME 	 DUE DATE 	 SERVICE TIME 
 0 	 	 500 	 	 500 	 	 0 	 	 0 	 	 3751 	 	 0 
  1 	 	 8 	 	 144 	 	 40 	 	 3063 	 	 3113 	 	 140 
  2 	 	 96 	 	 267 	 	 54 	 	 1359 	 	 1531 	 	 150 
  3 	 	 886 	 	 650 	 	 62 	 	 2456 	 	 2560 	 	 134 
  4 	 	 495 	 	 678 	 	 76 	 	 3417 	 	 3544 	 	 167 
  5 	 	 263 	 	 852 	 	 54 	 	 3151 	 	 3211 	 	 157 
  6 	 	 91 	 	 790 	 	 51 	 	 3036 	 	 3134 	 	 120 
  7 	 	 259 	 	 651 	 	 13 	 	 631 	 	 766 	 	 139 
  8 	 	 824 	 	 942 	 	 30 	 	 437 	 	 602 	 	 196 
  9 	 	 95 	 	 339 	 	 45 	 	 3556 	 	 3633 	 	 132 
  10 	 	 990 	 	 994 	 	 89 	 	 3617 	 	 3711 	 	 165 
  11 	 	 769 	 	 713 	 	 27 	 	 3459 	 	 3647 	 	 117 
  12 	 	 714 	 	 976 	 	 49 	 	 3007 	 	 3199 	 	 194 
  13 	 	 453 	 	 704 	 	 43 	 	 616 	 	 724 	 	 173 
  14 	 	 258 	 	 823 	 	 33 	 	 371 	 	 443 	 	 151 
  15 	 	 248 	 	 814 	 	 42 	 	 3244 	 	 3423 	 	 185 
  16 	 	 6 	 	 743 	 	 82 	 	 3287 	 	 3418 	 	 138 
  17 	 	 164 	 	 42 	 	 59 	 	 951 	 	 1142 	 	 150 
  18 	 	 39 	 	 815 	 	 73 	 	 456 	 	 614 	 	 123 
  19 	 	 199 	 	 922 	 	 77 	 	 1212 	 	 1314 	 	 129 
  20 	 	 60 	 	 793 	 	 56 	 	 2508 	 	 2576 	 	 162 
  21 	 	 293 	 	 845 	 	 47 	 	 3112 	 	 3237 	 	 142 
  22 	 	 930 	 	 872 	 	 2 	 	 593 	 	 739 	 	 155 
  23 	 	 386 	 	 1000 	 	 26 	 	 489 	 	 564 	 	 199 
  24 	 	 201 	 	 228 	 	 7 	 	 348 	 	 444 	 	 143 
  25 	 	 114 	 	 263 	 	 31 	 	 1974 	 	 2070 	 	 103 
  26 	 	 800 	 	 975 	 	 55 	 	 952 	 	 1002 	 	 133 
  27 	 	 79 	 	 793 	 	 12 	 	 730 	 	 865 	 	 104 
  28 	 	 930 	 	 653 	 	 63 	 	 805 	 	 913 	 	 138 
  29 	 	 114 	 	 813 	 	 11 	 	 1270 	 	 1324 	 	 168 
  30 	 	 856 	 	 928 	 	 33 	 	 2103 	 	 2188 	 	 129 
  31 	 	 59 	 	 291 	 	 80 	 	 382 	 	 536 	 	 148 
  32 	 	 549 	 	 750 	 	 68 	 	 2231 	 	 2346 	 	 177 
  33 	 	 542 	 	 710 	 	 5 	 	 2798 	 	 2860 	 	 199 
  34 	 	 219 	 	 762 	 	 73 	 	 1418 	 	 1576 	 	 197 
  35 	 	 89 	 	 93 	 	 8 	 	 496 	 	 636 	 	 154 
  36 	 	 525 	 	 734 	 	 43 	 	 2183 	 	 2369 	 	 119 
  37 	 	 189 	 	 868 	 	 40 	 	 1803 	 	 1865 	 	 194 
  38 	 	 28 	 	 888 	 	 44 	 	 2525 	 	 2701 	 	 164 
  39 	 	 841 	 	 571 	 	 71 	 	 2625 	 	 2723 	 	 165 
  40 	 	 947 	 	 738 	 	 85 	 	 1096 	 	 1164 	 	 122 
  41 	 	 132 	 	 799 	 	 97 	 	 752 	 	 947 	 	 151 
  42 	 	 856 	 	 1000 	 	 11 	 	 1764 	 	 1945 	 	 181 
  43 	 	 813 	 	 934 	 	 59 	 	 529 	 	 588 	 	 130 
  44 	 	 189 	 	 260 	 	 56 	 	 3412 	 	 3531 	 	 110 
  45 	 	 501 	 	 714 	 	 37 	 	 631 	 	 807 	 	 113 
  46 	 	 186 	 	 616 	 	 76 	 	 2296 	 	 2442 	 	 109 
  47 	 	 190 	 	 859 	 	 39 	 	 1689 	 	 1868 	 	 128 
  48 	 	 274 	 	 657 	 	 81 	 	 2856 	 	 2996 	 	 192 
  49 	 	 67 	 	 815 	 	 80 	 	 508 	 	 589 	 	 155 
  50 	 	 104 	 	 255 	 	 1 	 	 1368 	 	 1559 	 	 120 
 